57
raw_data/mm-rcpsp/MMLIB50/J5012_2.mm
Time limit set to 60 seconds
Running CP solver
/home/omastto1/General-Optimization-Solver/src/solvers/mmrcpsp.py:42(stream:276:6): Warning: Cumulative expression 'pulse': height is zero, expression is zero everywhere.
                                                                                               VarCumulAtom_419 = pulse(task_0_mode_0, 0)
/home/omastto1/General-Optimization-Solver/src/solvers/mmrcpsp.py:42(stream:276:3912): Warning: Cumulative expression 'pulse': height is zero, expression is zero everywhere.
                                                                                                  VarCumulAtom_570 = pulse(task_51_mode_0, 0)
/home/omastto1/General-Optimization-Solver/src/solvers/mmrcpsp.py:42(stream:277:6): Warning: Cumulative expression 'pulse': height is zero, expression is zero everywhere.
                                                                                               VarCumulAtom_574 = pulse(task_0_mode_0, 0)
/home/omastto1/General-Optimization-Solver/src/solvers/mmrcpsp.py:42(stream:277:3909): Warning: Cumulative expression 'pulse': height is zero, expression is zero everywhere.
                                                                                                  VarCumulAtom_725 = pulse(task_51_mode_0, 0)
 ! --------------------------------------------------- CP Optimizer 20.1.0.0 --
 ! Minimization problem - 205 variables, 299 constraints
 ! TimeLimit            = 60
 ! Workers              = 14
 ! LogVerbosity         = Terse
 ! Initial process time : 0.00s (0.00s extraction + 0.00s propagation)
 !  . Log search space  : 521.2 (before), 521.2 (after)
 !  . Memory usage      : 1.3 MB (before), 1.3 MB (after)
 ! Using parallel search with 14 workers.
 ! ----------------------------------------------------------------------------
 !          Best Branches  Non-fixed    W       Branch decision
                        0        205                 -
 + New bound is 16
 ! Using iterative diving.
 ! Using temporal relaxation.
 *            56      109  0.82s        1      (gap is 71.43%)
 *            53      309  0.82s        1      (gap is 69.81%)
 *            44      499  0.82s        1      (gap is 63.64%)
 *            43      905  0.82s        1      (gap is 62.79%)
 *            42     1105  0.82s        1      (gap is 61.90%)
 *            36     1312  0.82s        1      (gap is 55.56%)
 *            35     1640  0.82s        1      (gap is 54.29%)
 *            34     3108  1.54s        1      (gap is 52.94%)
 *            33     6861  2.25s        1      (gap is 51.52%)
              33     7710         41    5   F        -
 + New bound is 17 (gap is 48.48%)
 ! Using failure-directed search.
 *            32    21506  5.17s        8      (gap is 46.88%)
 *            31    20821  5.88s       10      (gap is 45.16%)
              31    21219        123    1   F     7 <= startOf(task_26)
 + New bound is 18 (gap is 41.94%)
 ! ----------------------------------------------------------------------------
 ! Search terminated by limit, 11 solutions found.
 ! Best objective         : 31 (gap is 41.94%)
 ! Best bound             : 18
 ! ----------------------------------------------------------------------------
 ! Number of branches     : 5398213
 ! Number of fails        : 1068446
 ! Total memory usage     : 20.0 MB (19.8 MB CP Optimizer + 0.2 MB Concert)
 ! Time spent in solve    : 60.04s (60.04s engine + 0.00s extraction)
 ! Search speed (br. / s) : 89925.3
 ! ----------------------------------------------------------------------------
task_0: (start=0, end=0, size=0, length=0)
Task 0 is scheduled in mode 0 from 0 to 0
task_1: (start=4, end=7, size=3, length=3)
Task 1 is scheduled in mode 0 from 4 to 7
task_2: (start=0, end=1, size=1, length=1)
Task 2 is scheduled in mode 0 from 0 to 1
task_3: (start=1, end=3, size=2, length=2)
Task 3 is scheduled in mode 0 from 1 to 3
task_4: (start=1, end=4, size=3, length=3)
Task 4 is scheduled in mode 0 from 1 to 4
task_5: (start=6, end=8, size=2, length=2)
Task 5 is scheduled in mode 1 from 6 to 8
task_6: (start=0, end=2, size=2, length=2)
Task 6 is scheduled in mode 0 from 0 to 2
task_7: (start=5, end=6, size=1, length=1)
Task 7 is scheduled in mode 0 from 5 to 6
task_8: (start=3, end=7, size=4, length=4)
Task 8 is scheduled in mode 0 from 3 to 7
task_9: (start=2, end=5, size=3, length=3)
Task 9 is scheduled in mode 0 from 2 to 5
task_10: (start=0, end=1, size=1, length=1)
Task 10 is scheduled in mode 0 from 0 to 1
task_11: (start=3, end=8, size=5, length=5)
Task 11 is scheduled in mode 0 from 3 to 8
task_12: (start=4, end=8, size=4, length=4)
Task 12 is scheduled in mode 0 from 4 to 8
task_13: (start=2, end=3, size=1, length=1)
Task 13 is scheduled in mode 0 from 2 to 3
task_14: (start=7, end=9, size=2, length=2)
Task 14 is scheduled in mode 0 from 7 to 9
task_15: (start=3, end=4, size=1, length=1)
Task 15 is scheduled in mode 0 from 3 to 4
task_16: (start=9, end=19, size=10, length=10)
Task 16 is scheduled in mode 2 from 9 to 19
task_17: (start=0, end=1, size=1, length=1)
Task 17 is scheduled in mode 0 from 0 to 1
task_18: (start=8, end=9, size=1, length=1)
Task 18 is scheduled in mode 0 from 8 to 9
task_19: (start=0, end=3, size=3, length=3)
Task 19 is scheduled in mode 0 from 0 to 3
task_20: (start=17, end=20, size=3, length=3)
Task 20 is scheduled in mode 0 from 17 to 20
task_21: (start=13, end=14, size=1, length=1)
Task 21 is scheduled in mode 0 from 13 to 14
task_22: (start=13, end=22, size=9, length=9)
Task 22 is scheduled in mode 2 from 13 to 22
task_23: (start=9, end=16, size=7, length=7)
Task 23 is scheduled in mode 0 from 9 to 16
task_24: (start=8, end=13, size=5, length=5)
Task 24 is scheduled in mode 0 from 8 to 13
task_25: (start=7, end=13, size=6, length=6)
Task 25 is scheduled in mode 0 from 7 to 13
task_26: (start=20, end=24, size=4, length=4)
Task 26 is scheduled in mode 0 from 20 to 24
task_27: (start=8, end=9, size=1, length=1)
Task 27 is scheduled in mode 0 from 8 to 9
task_28: (start=21, end=23, size=2, length=2)
Task 28 is scheduled in mode 1 from 21 to 23
task_29: (start=24, end=30, size=6, length=6)
Task 29 is scheduled in mode 1 from 24 to 30
task_30: (start=1, end=2, size=1, length=1)
Task 30 is scheduled in mode 0 from 1 to 2
task_31: (start=28, end=31, size=3, length=3)
Task 31 is scheduled in mode 0 from 28 to 31
task_32: (start=30, end=31, size=1, length=1)
Task 32 is scheduled in mode 0 from 30 to 31
task_33: (start=23, end=28, size=5, length=5)
Task 33 is scheduled in mode 0 from 23 to 28
task_34: (start=30, end=31, size=1, length=1)
Task 34 is scheduled in mode 0 from 30 to 31
task_35: (start=29, end=30, size=1, length=1)
Task 35 is scheduled in mode 0 from 29 to 30
task_36: (start=26, end=30, size=4, length=4)
Task 36 is scheduled in mode 1 from 26 to 30
task_37: (start=30, end=31, size=1, length=1)
Task 37 is scheduled in mode 0 from 30 to 31
task_38: (start=14, end=23, size=9, length=9)
Task 38 is scheduled in mode 2 from 14 to 23
task_39: (start=23, end=26, size=3, length=3)
Task 39 is scheduled in mode 0 from 23 to 26
task_40: (start=28, end=30, size=2, length=2)
Task 40 is scheduled in mode 0 from 28 to 30
task_41: (start=26, end=28, size=2, length=2)
Task 41 is scheduled in mode 1 from 26 to 28
task_42: (start=26, end=31, size=5, length=5)
Task 42 is scheduled in mode 1 from 26 to 31
task_43: (start=9, end=13, size=4, length=4)
Task 43 is scheduled in mode 0 from 9 to 13
task_44: (start=22, end=29, size=7, length=7)
Task 44 is scheduled in mode 1 from 22 to 29
task_45: (start=13, end=21, size=8, length=8)
Task 45 is scheduled in mode 2 from 13 to 21
task_46: (start=8, end=9, size=1, length=1)
Task 46 is scheduled in mode 0 from 8 to 9
task_47: (start=16, end=26, size=10, length=10)
Task 47 is scheduled in mode 2 from 16 to 26
task_48: (start=16, end=26, size=10, length=10)
Task 48 is scheduled in mode 2 from 16 to 26
task_49: (start=9, end=17, size=8, length=8)
Task 49 is scheduled in mode 1 from 9 to 17
task_50: (start=26, end=29, size=3, length=3)
Task 50 is scheduled in mode 0 from 26 to 29
task_51: (start=31, end=31, size=0, length=0)
Task 51 is scheduled in mode 0 from 31 to 31
Feasible solution found
Objective value: 31
Solution is 93.8 % worse than the lower bound.
